c Lingeling SAT Solver
c 
c Version ala b02aa1a04343558c4252b5f4a723be021964f652
c 
c Copyright (C) 2010-2012 Armin Biere JKU Linz Austria.
c All rights reserved.
c 
c released Sat Oct 13 14:05:26 CEST 2012
c compiled Sat Feb 16 02:48:12 EST 2013
c 
c gcc (Debian 4.4.5-8) 4.4.5
c -Wall -O3 -DNLGLOG -DNDEBUG -DNCHKSOL -DNLGLPICOSAT 
c Linux greencar2 2.6.32-5-amd64 x86_64
c 
c reading input file p44.cnf
c no embedded options
c found 'p cnf 230442 714602' header
c read 230442 variables, 714602 clauses, 1487010 literals in 0.0 seconds
c
c feature vars 230442
c feature lits.total 1487010
c feature lits.pos 792103
c feature lits.neg 694907
c feature clauses.total 714602
c feature clauses.unit 85888
c feature clauses.bin 503420
c feature clauses.trn 123894
c feature clauses.lrg 1400
c feature cog.val.min 1
c feature cog.val.avg 102680
c feature cog.val.max 221733
c feature cog.var.min 1
c feature cog.var.avg 115222
c feature cog.var.max 230441
c
c
c --abstime=0
c --acts=2
c --actavgmax=120
c --actstdmin=20
c --actstdmax=80
c --agile=23
c --bias=2
c --block=1
c --blkrtc=0
c --blkclslim=2000
c --blkocclim=2000
c --blkmaxeff=2147483647
c --blkmineff=10000000
c --blkreleff=20
c --card=0
c --cce=3
c --ccemaxeff=100000000
c --ccemineff=5000000
c --ccereleff=3
c --check=0
c --cgrclsr=1
c --cgrmaxority=20
c --cgrmaxeff=8000000
c --cgrmineff=200000
c --cgreleff=1
c --cgrexteq=1
c --cgrextand=1
c --cgrextunits=1
c --cgrextite=1
c --cgrextxor=1
c --cliff=1
c --cliffreleff=8
c --cliffmineff=10000000
c --cliffmaxeff=100000000
c --compact=0
c --decompose=1
c --defragint=10000000
c --defragfree=50
c --elim=1
c --elmrtc=0
c --elmblk=1
c --elmclslim=1000
c --elmocclim=1000
c --elmaxeff=100000000
c --elmineff=5000000
c --elmreleff=10
c --sleeponabort=0
c --exitonabort=0
c --flipping=1
c --flipint=2
c --flipdur=50
c --fliptop=1
c --force=0
c --gauss=1
c --gaussextrall=1
c --gaussmaxor=20
c --gaussexptrn=1
c --gaussmaxeff=50000000
c --gaussmineff=2000000
c --gaussreleff=2
c --gluescale=2
c --gluekeep=0
c --inprocessing=1
c --cintinc=10000
c --irrlim=20
c --lift=1
c --lftmaxeff=20000000
c --lftmineff=500000
c --lftreleff=6
c --lhbr=1
c --lkhd=1
c --clim=-1
c --mocint=1000
c --move=2
c --log=-1
c --otfs=1
c --phase=0
c --phaseneginit=0
c --plain=0
c --probe=1
c --prbasicmaxeff=100000000
c --prbasicmineff=1000000
c --prbasicreleff=10
c --prbasic=1
c --prbasicroundlim=9
c --queuemergelim=10000
c --queuefactor=833
c --queueinc=20
c --rmincpen=4
c --seed=0
c --smallirr=90
c --smallve=1
c --smallvevars=12
c --randec=1
c --randecint=1000
c --redfixed=0
c --redlbound=0
c --redlexpfac=10
c --redldoutfac=0
c --redloutinc=10000
c --redlinit=1000
c --redlinc=1000
c --redinoutinc=100
c --redlmininc=10
c --redlmaxinc=200
c --redlminrel=10
c --redlmaxrel=300
c --redlminabs=500
c --redlmaxabs=1000000
c --reduce=1
c --restart=2
c --restartint=5
c --rstinoutinc=110
c --simplify=1
c --simpdelay=100
c --simpen=4
c --sizepen=1000000
c --sizemaxpen=3
c --sortlits=0
c --syncint=111111
c --termint=122222
c --ternres=1
c --ternresrtc=0
c --trnrmineff=4000000
c --trnrmaxeff=40000000
c --trnreleff=10
c --transred=1
c --trdmineff=100000
c --trdmaxeff=2000000
c --trdreleff=10
c --unhide=1
c --unhdextstamp=1
c --unhdhbr=0
c --unhdmaxeff=20000000
c --unhdmineff=1000000
c --unhdreleff=4
c --unhdlnpr=3
c --unhdroundlim=5
c --verbose=1
c --witness=1
c [limits] no conflict limit
c [limits] simplification delayed by 100 to 100 conflicts
c 
c  seconds         irredundant          redundant clauses agility   height
c          variables clauses conflicts large binary ternary    glue         MB
c 
c *    0.0  127294   534052         0       0      0     0  64  0.0   0.0   42
c [cut-width] 177911, max 275992, min4 118592 at 75%, min10 33947 at 89%
c [decision-order] bias 1, old 1
c [queue-schedule-all-variables]
c s    0.0  127294   534052         0       0      0     0  64  0.0   0.0   42
c [simplification-1] limit hit at 100 conflicts
c [simplification-1] simplification penalty of 4
c [ternres-1] limit 4000000 with penalty 0 = 0 + 0
c [ternres-1] all 127294 free variables schedulable
c [ternres-1] 0 ternary resolvents (0 bin, 0 trn)
c [ternres-1] 26829 variables remain 21% (100465 retained)
c [gauss-1] limit 2000000 penalty 0 = 0 + 0
c [gauss-1] extracted 165436 xors of average arity 2.0
c [gauss-1] connected 330875 occurrences of 114142 variables (average 2.9)
c [gauss-1] limit 2000000 penalty 0 = 0 + 0
c d    1.5   58687   266429       100      98      0     0  73  6.1 278.4   21
c [gauss-1] exported 0 unary, 3 binary and 0 ternary equations
c G    1.5   58687   266429       100      98      0     0  73  6.1 278.4   21
c [basicprobe-1] limit 1000000 penalty 0 = 0 + 0
c [basicprobe-1-0] 4147 probes remain 7% after last round
c [basicprobe-1-0] removed 0 variables, found 3600 hbrs
c p    1.8   58687   266429       100      98   3600     0  73  6.1 278.4   25
c [cgrclsr-1] limit 200000 penalty 0 = 0 + 0
c [cgrclsr-1] all 58687 free variables schedulable
c [cgrclsr-1] fully completed congruence closure
c [lift-1] limit 500000 with penalty 0 = 0 + 0
c [lift-1] using 58687 probes 100%
c [lift-1] 58655 variables remain 100% (32 retained)
c [cliff-1] limit of 10000000 steps penalty 0 = 0 + 0
c [cliff-1] failed 0, lifted 2
c K    2.7   58685   266429       100      98  19130     0  73  6.1 278.4   25
c [unhide-1] limit 1000000 with penalty 0 = 0 + 0
c [unhide-1-1] 0 units, 1 failed, 21973 tauts, 0 hbrs, 95 literals
c u    3.0   58683   244447       100      98  19130     0  73  6.1 278.4   26
c [transred-1] limit 100000 with penalty 0 = 0 + 0
c t    3.0   58683   244446       100      98  19127     0  73  6.1 278.4   26
c [block-1] scheduling all variables this time
c [block-1] scheduled 58683 variables 100%
c [block-1] limit of 10000000 steps penalty 0 = 0 + 0
c [block-1] fully completed blocked clause elimination
c [block-1] transition to [ all 0 rem 0 ] state
c [block-1] eliminated 4600 blocked clauses
c k    3.3   58683   239837       100      98  19127  4600  73  6.1 278.4   21
c [cce-1] scheduling all variables this time
c [cce-1] limit of 10000000 steps penalty 0 = 0 + 0
c [cce-1] incomplete covered clause elimination 52799 not tried 90%
c [cce-1] transition to [ all 1 rem 1 ] state
c [cce-1] eliminated 156 covered clauses
c E    4.1   58681   239681       100      98  32260  4599  73  6.1 278.4   21
c [elim-1] scheduling all variables this time
c [elim-1] scheduled 58681 variables 100%
c [elim-1] limit of 5000000 steps penalty 0 = 0 + 0
c [elim-1] incomplete variable elimination 43882 not tried 75%
c [elim-1] transition to [ all 1 rem 1 ] state
c [elim-1] eliminated 6422 = 11% variables out of 58681
c e    5.6   52259   235771       100      62   8623   581  73  6.1 278.4   21
c [phase-1] phase bias: 978 positive 14%, 6081 negative 86%
c [simplification-1] removed 75035 variables 58%
c [simplification-1] limit increments divided by 30
c [simplification-1] arithmetic increase of conflict limit interval by 333
c [simplification-1] new irredundant limit 2336576
c [simplification-1] new conflict limit 433
c [simplification-1] simplification penalty reduced to 3
c [simplification-2] limit hit at 433 conflicts
c [simplification-2] simplification penalty of 3
c [ternres-2] limit 2000000 with penalty 1 = 1 + 0
c [ternres-2] 10990 schedulable variables 21%
c [ternres-2] 7 ternary resolvents (0 bin, 7 trn)
c [ternres-2] fully completed ternary resolution
c T    5.9   52259   235771       433     389   8623   594  30 16.6 597.0   26
c [gauss-2] limit 2000000 penalty 0 = 0 + 0
c [gauss-2] extracted 878 xors of average arity 3.0
c [gauss-2] connected 2634 occurrences of 1317 variables (average 2.0)
c [gauss-2] limit 2000000 penalty 0 = 0 + 0
c [gauss-2] fully completed
c [gauss-2] exported 0 unary, 0 binary and 0 ternary equations
c G    6.1   52259   235771       433     389   8623   594  30 16.6 597.0   21
c [basicprobe-2] limit 500000 penalty 1 = 1 + 0
c [basicprobe-2-0] 4179 probes remain 8% after last round
c [basicprobe-2-0] 1 units = 1 failed (100%) + 0 lifted (0%)
c [basicprobe-2-0] removed 1 variables, found 363 hbrs
c p    6.3   52258   235771       433     389   8986   594  30 16.6 597.0   26
c [cgrclsr-2] limit 100000 penalty 1 = 1 + 0
c [cgrclsr-2] all 52258 free variables schedulable
c [cgrclsr-2] fully completed congruence closure
c [lift-2] limit 250000 with penalty 1 = 1 + 0
c [lift-2] using 52227 probes 100%
c [lift-2] 52207 variables remain 100% (51 retained)
c [cliff-2] limit of 10000000 steps penalty 0 = 0 + 0
c [cliff-2] failed 0, lifted 0
c [unhide-2] limit 1000000 with penalty 0 = 0 + 0
c [unhide-2-2] 0 units, 0 failed, 1911 tauts, 0 hbrs, 243 literals
c u    7.5   52258   235759       433     389   8304   593  30 16.6 597.0   26
c [transred-3] limit 100000 with penalty 0 = 0 + 0
c t    7.5   52258   235758       433     389   8303   593  30 16.6 597.0   26
c [block-2] scheduling all variables this time
c [block-2] scheduled 52258 variables 100%
c [block-2] limit of 10000000 steps penalty 0 = 0 + 0
c [block-2] fully completed blocked clause elimination
c [block-2] transition to [ all 0 rem 0 ] state
c [block-2] eliminated 0 blocked clauses
c [cce-2] 49275 variables 94% will be scheduled this time
c [cce-2] limit of 10000000 steps penalty 0 = 0 + 0
c [cce-2] 48831 variables 93% remain to be tried next time
c [cce-2] transition to [ all 0 rem 1 ] state
c [cce-2] eliminated 318 covered clauses
c E    8.3   52258   235440       433     389   8841   593  30 16.6 597.0   21
c [elim-2] 43819 variables 84% will be scheduled this time
c [elim-2] scheduled 43819 variables 84%
c [elim-2] limit of 5000000 steps penalty 0 = 0 + 0
c [elim-2] 33897 variables 65% remain to be tried next time
c [elim-2] transition to [ all 0 rem 1 ] state
c [elim-2] eliminated 822 = 2% variables out of 52258
c e    9.9   51436   235124       433     383   6914   593  30 16.6 597.0   21
c [phase-2] phase bias: 0 positive 0%, 0 negative 0%
c [simplification-2] removed 823 variables 1%
c [simplification-2] no reduction of limit increments
c [simplification-2] arithmetic increase of conflict limit interval by 10000
c [simplification-2] new irredundant limit 2336576
c [simplification-2] new conflict limit 10766
c [simplification-2] simplification penalty reduced to 2
c R   10.4   51436   235124      1004     901   6919   637   5 10.9 309.4   26
c -   10.5   51436   235124      1128     502   6925   651   2 10.2 287.1   26
c R   11.3   51436   235124      2293    1540   6959   733   5 11.2 266.3   26
c -   12.8   51436   235124      4081    1522   7027   932   4  8.7 236.4   26
c R   13.2   51436   235124      5203    2538   7056  1005   5  8.2 241.8   26
c 
c  seconds         irredundant          redundant clauses agility   height
c          variables clauses conflicts large binary ternary    glue         MB
c 
c -   15.5   51436   235124      8045    2504   7158  1246   4  7.6 230.4   26
c [simplification-3] limit hit at 10768 conflicts
c [simplification-3] simplification penalty of 2
c [ternres-3] limit 4000000 with penalty 0 = 0 + 0
c [ternres-3] all 51436 free variables schedulable
c [ternres-3] 183 ternary resolvents (0 bin, 183 trn)
c [ternres-3] 1340 variables remain 3% (50096 retained)
c T   17.3   51436   235124     10768    5013   7224  1562  10  8.0 240.9   27
c [gauss-3] limit 1000000 penalty 1 = 1 + 0
c [gauss-3] extracted 494 xors of average arity 3.0
c [gauss-3] connected 1482 occurrences of 1188 variables (average 1.2)
c [gauss-3] limit 1000000 penalty 1 = 1 + 0
c [gauss-3] fully completed
c [gauss-3] exported 0 unary, 0 binary and 0 ternary equations
c G   17.5   51436   235124     10768    5013   7224  1562  10  8.0 240.9   22
c [basicprobe-3] limit 1128982 penalty 0 = 0 + 0
c [basicprobe-3-0] 3372 probes remain 7% after last round
c [basicprobe-3-0] removed 0 variables, found 955 hbrs
c p   17.8   51436   235124     10768    5013   8179  1511  10  8.0 240.9   26
c [cgrclsr-3] limit 73391 based on 587131 irredundant literals
c [cgrclsr-3] all 51436 free variables schedulable
c [cgrclsr-3] fully completed congruence closure
c [lift-3] limit 169347 with penalty 2 = 2 + 0
c [lift-3] using 51387 probes 100%
c [lift-3] 51376 variables remain 100% (60 retained)
c [cliff-3] limit of 5000000 steps penalty 1 = 1 + 0
c [cliff-3] failed 0, lifted 0
c [unhide-3] limit 1000000 with penalty 0 = 0 + 0
c [unhide-3-3] 0 units, 0 failed, 1576 tauts, 0 hbrs, 2983 literals
c u   18.6   51436   233577     10768    4976   8611  1507  10  8.0 240.9   26
c [transred-5] limit 1128982 with penalty 0 = 0 + 0
c t   18.7   51436   233568     10768    4976   8584  1507  10  8.0 240.9   26
c [block-3] scheduling all variables this time
c [block-3] scheduled 51436 variables 100%
c [block-3] limit of 5000000 steps penalty 1 = 1 + 0
c [block-3] fully completed blocked clause elimination
c [block-3] transition to [ all 0 rem 0 ] state
c [block-3] eliminated 0 blocked clauses
c [cce-3] scheduling all variables this time
c [cce-3] limit of 10000000 steps penalty 0 = 0 + 0
c [cce-3] 47807 variables 93% remain to be tried next time
c [cce-3] transition to [ all 1 rem 1 ] state
c [cce-3] eliminated 218 covered clauses
c E   19.6   51436   233350     10768    4976   9013  1500  10  8.0 240.9   22
c [elim-3] scheduling all variables this time
c [elim-3] scheduled 51436 variables 100%
c [elim-3] limit of 5000000 steps penalty 0 = 0 + 0
c [elim-3] 31803 variables 62% remain to be tried next time
c [elim-3] transition to [ all 1 rem 1 ] state
c [elim-3] eliminated 553 = 1% variables out of 51436
c e   21.3   50883   232937     10768    4852   7730  1489  10  8.0 240.9   22
c [simplification-3] removed 553 variables 1%
c [simplification-3] no reduction of limit increments
c [simplification-3] arithmetic increase of conflict limit interval by 10000
c [simplification-3] new irredundant limit 2336576
c [simplification-3] new conflict limit 31101
c [simplification-3] simplification penalty reduced to 1
c 1   21.4   50883   232937     10822    4903   7731  1491   8  8.0 242.0   27
c 
c  seconds         irredundant          redundant clauses agility   height
c          variables clauses conflicts large binary ternary    glue         MB
c 
c blkd: 3 bces, 4600 removed, 2086687 resolutions, 5783700 steps
c blkd: 4600 blocking literals 1%, 0 pure
c cces: 3 cces, 660 eliminated, 660 ate 100%, 0 abce 0%
c cces: 18632 probed, 1 lifted, 2 failed
c clff: 3 cliffs, 2 lifted, 0 failed
c clff: 10154 decisions, 25029818 steps
c clls: 1 sat, 0 simp, 0 freeze, 0 melt
c clls: 2201612 add, 0 assume,, 0 deref, 0 failed
c clls: 0 cassume, 0 mosat
c coll: 19 gcs, 0 rescored clauses
c cgrs: 3 count, 373399 esteps, 81596 csteps
c cgrs: 0 eqs, 0 units
c cgrs: 0 matched (0 ands 0%, 0 xors 0%, 0 ites 0%)
c cgrs: 0 simplified (0 ands 0%, 0 xors 0%, 0 ites 0%)
c cgrs: 2189 extracted (1878 ands 86%, 311 xors 14%, 0 ites 0%)
c dcps: 4 decompositions, 68607 equivalent 30%
c decs: 193838 decision, 189 random 0.098%
c decs: 45752 flipped 23.603% (in 65 phases)
c elms: 3 elims, 7797 eliminated 3%
c elms: 7797 small 100%, 0 large 0%
c elms: 36197 tried small, 7797 succeeded 22%, 28400 failed 78%
c elms: 0 subsumed, 0 strengthened, 0 blocked
c elms: 478500 copies, 328752 resolutions, 976378 ipos
c elms: 0 subchks, 0 strchks
c frcs: 0 computed, 21.5 - 78.5 average min-cut range
c gaus: 3 extractions, 166808 extracted, 2.0 size, 3 max
c gaus: exported 0 units, 3 binary and 0 ternary equations
c gaus: 0 gc, 10000174 steps, 5000087 extr 50%, 2330238 elim 23%
c glue: 8.0 avg, 2.8 scaled avg
c glue: 0 maxredglue=15 (0%)
c lift: 3 phases, 378 probed (126 level1 33%, 252 level2 67%)
c lift: 0 units, 0 equivalences, 0 implications
c hbrs: 35542 hbrs = 35542 trn 100% + 0 lrg 0%, 64 sub 0%
c lrnd: 10739 clauses, 6613 uips 62%, 30.4 length, 8.0 glue
c ints: 511 luby (67103 steps), 0 inout (0 steps)
c mins: 326052 learned lits, 4% minimized
c move: moved 5260, 660 binary 13%, 4600 ternary 87%
c otfs: str 387 dyn (328 red, 59 irr) 83 drv 21%, 304 rst 79%
c otfs: sub 1 dyn (1 red, 0 irr)
c phas: 2 computed, 7232 set, 978 pos (14%), 6254 neg (86%)
c prbs: 3 basic, 3545 probed, 1 failed, 0 lifted
c prps: 31645668 props, 116 props/dec
c prps: 71% srch, 29% simp, 0% lkhd
c psns: 1446624 searches, 201117 hits, 14% hit rate
c queu: 41010 new, 15380 del, 120 maximum priority
c queu: 25612 merged, 25488 collected, 5 gcs
c queu: 11126 deprioritized, 23.8 lines on average
c reds: 3 count, 0 reset, 3 acts 100%, 0 exp 0%
c reds: 3 arithmetic 100%, 3 double 100%
c rmbd: 5 removed, 0 red 0%
c rsts: 449 restarts 88%, 61 skipped 12%
c rsts: 62 kept 13.8% average 41.1%
c simp: 3 count (0 ilim 0%, 0 plim 0%, 3 clim 100%)
c trnr: 3 count, 0 bin, 190 trn, 8873685 steps
c tops: 103155 fixed 45%, 0 iterations
c trds: 6 transitive reductions, 42 removed, 0 failed
c trds: 1469 nodes, 2027 edges, 1331340 steps
c unhd: 3 count, 3 rounds, 3721067 steps
c unhd: 0 non-trivial sccs of average size 0.0
c unhd: 0 units, 0 bin, 0 trn, 0 lrg
c unhd: 1 failed, 1 stamp, 0 lits, 0 bin, 0 trn, 0 lrg
c unhd: 25460 tauts, 2 bin 0%, 505 trn 2%, 16 lrg 0%
c unhd: 25460 tauts, 24937 stamp 98%, 1940 red 8%
c unhd: 0 hbrs, 0 trn 0%, 0 lrg 0%, 0 red 0%
c unhd: 3321 strd, 0 bin 0%, 7 trn 0%, 3314 lrg 100%, 3321 red 100%
c vars: 50883 remaining 22% and 179559 removed 78% out of 230442
c vars: 103155 fixed 45%, 7797 eliminated 3%, 68607 equivalent 30%
c vsts: 155516712 visits, 73% srch, 27% simp, 0% lkhd
c vsts: 5.0 search visits per propagation 10480.0 per conflict
c wchs: 14051444 pushed, 5648572 enlarged, 32 defrags
c 
c scaledglue  added       reduced       forcing      resolved     conflicts
c 
c all      9651 100      4525 100     67146 100     20363 100      1658 100
c 
c  0          0   0         0   0         0   0         0   0         0   0 
c  1         88   1        30   1       556   1       226   1        10   1 
c  2       3419  35      1622  36     28529  42      6610  32       488  29 
c  3       3271  34<     1438  32<    26611  40<     6956  34<      577  35<
c  4       1767  18       866  19      8640  13      4141  20       407  25 
c  5        658   7       333   7      1974   3      1485   7       104   6 
c  6        275   3       137   3       571   1       603   3        53   3 
c  7        134   1        72   2       209   0       272   1        14   1 
c  8         31   0        24   1        44   0        58   0         5   0 
c  9          4   0         3   0         6   0         5   0         0   0 
c 10          2   0         0   0         3   0         4   0         0   0 
c 11          2   0         0   0         3   0         3   0         0   0 
c 12          0   0         0   0         0   0         0   0         0   0 
c 13          0   0         0   0         0   0         0   0         0   0 
c 14          0   0         0   0         0   0         0   0         0   0 
c 15          0   0         0   0         0   0         0   0         0   0 
c 
c avg             3.1           3.2           2.8           3.2           3.2
c std             1.2           1.2           0.9           1.2           1.1
c 
c 193838 decisions, 10822 conflicts, 505.3 conflicts/sec
c 31645668 propagations, 1.5 megaprops/sec
c 21.4 seconds, 49.0 MB
c 
c    1.064   5% analysis
c    0.788   4% block
c    0.024   0% bump
c    0.000   0% card
c    2.024   9% cce
c    1.472   7% cliff
c    0.024   0% cutwidth
c    0.404   2% decide
c    0.000   0% force
c    1.476   7% gc
c    0.592   3% cgrclsr
c    0.720   3% decomp
c    0.416   2% defrag
c    4.848  23% elim
c    1.736   8% gauss
c    0.476   2% lift
c    0.160   1% mincls
c    0.084   0% phase
c    0.284   1% probe
c    0.024   0% reduce
c    0.480   2% restart
c    0.248   1% ternres
c    0.156   1% transred
c    0.640   3% unhide
c ==================================
c    0.032   0% preprocessing     0%
c   14.065  66% inprocessing    100%
c ==================================
c   14.097  66% simplifying
c    0.000   0% lookahead
c    7.304  34% search
c ==================================
c   21.417 100% all
c
s SATISFIABLE
